NAME : portgen-15-1978
COMMENT : portgen N=15, seed=1978
TYPE : TSP
DIMENSION : 15
EDGE_WEIGHT_TYPE : EUC_2D
NODE_COORD_SECTION
1 315 529
2 789 327
3 352 533
4 260 171
5 911 198
6 200 954
7 573 517
8 769 16
9 246 85
10 377 596
11 83 904
12 884 832
13 584 679
14 794 19
15 835 140
